50
120
98
96
96
87
87
87
86
85
83
83
82
81
77
74
67
65
64
64
63
60
57
57
56
55
50
49
46
43
43
42
37
33
31
31
27
27
26
25
23
23
19
18
15
13
10
9
6
3
2
1
